WARNING: for repeatability, setting FPU to use double precision
============================[ Problem Statistics ]=============================
|                                                                             |
|  Number of variables:            50                                         |
|  Number of clauses:             218                                         |
|  Parse time:                   0.00 s                                       |
|                                                                             |
============================[ Search Statistics ]==============================
| Conflicts |          ORIGINAL         |          LEARNT          | Progress |
|           |    Vars  Clauses Literals |    Limit  Clauses Lit/Cl |          |
===============================================================================
===============================================================================
restarts              : 1
conflicts             : 1              (743 /sec)
decisions             : 16             (0.00 % random) (11896 /sec)
propagations          : 66             (49071 /sec)
conflict literals     : 6              (14.29 % deleted)
Memory used           : 20.00 MB
CPU time              : 0.001345 s

SATISFIABLE
